c   #vars: 81   #clauses: 357   #literals: 982
c 
p cnf 81 357
-1 -2 0
-4 -5 0
-6 -7 0
-8 -9 0
-10 -11 0
22 23 35 36 0
27 28 35 36 0
-12 -13 0
17 64 65 -78 0
-15 -16 0
26 39 40 -49 0
-18 -19 0
-20 -21 0
-22 -23 0
-24 -25 0
8 9 29 -78 0
-27 -28 0
34 -64 74 75 0
-30 -31 0
-32 -33 0
-15 22 23 43 0
-35 -36 0
-37 -38 0
-39 -40 0
-41 -42 0
-24 46 74 75 0
-44 -45 0
30 31 -49 55 0
12 13 66 67 0
12 13 68 69 0
-47 -48 0
-49 -50 0
-51 -52 0
-53 -54 0
3 -51 70 71 0
-56 -57 0
-58 -59 0
-60 -61 0
-62 -63 0
-64 -65 0
-66 -67 0
-68 -69 0
1 2 56 57 0
-70 -71 0
-72 -73 0
41 42 58 59 0
41 42 62 63 0
34 64 65 -74 0
8 9 37 38 0
-74 -75 0
6 7 53 54 0
-76 -77 0
-78 -79 0
44 45 78 79 0
-80 -81 0
18 19 58 59 0
-1 -37 0
-2 -38 0
20 21 78 79 0
-1 -41 0
-2 -42 0
3 32 33 -51 0
-1 -47 0
-2 -48 0
20 21 51 52 0
-1 -49 0
-2 -50 0
44 45 56 57 0
-1 -56 0
-2 -57 0
14 53 54 -74 0
-3 -33 0
53 54 64 65 0
3 51 52 -70 0
14 53 54 -60 0
-3 -52 0
3 -32 70 71 0
-3 -71 0
14 -60 74 75 0
34 -60 74 75 0
-5 -29 0
24 25 78 79 0
-4 -35 0
-5 -36 0
-4 -64 0
-5 -65 0
17 -64 78 79 0
-4 -76 0
-5 -77 0
-6 -30 0
-7 -31 0
-6 -35 0
-7 -36 0
53 54 72 73 0
3 -32 51 52 0
44 45 76 77 0
-6 -53 0
-7 -54 0
-6 -58 0
-7 -59 0
12 13 53 54 0
-6 -64 0
-7 -65 0
12 13 44 45 0
-6 -80 0
-7 -81 0
30 31 72 73 0
34 60 61 -74 0
-9 -29 0
-8 -30 0
-9 -31 0
39 40 70 71 0
-8 -37 0
-9 -38 0
20 21 72 73 0
-22 46 74 75 0
-9 -43 0
-30 35 36 55 0
35 36 -49 55 0
14 60 61 -74 0
24 25 68 69 0
-8 -76 0
-9 -77 0
-10 -56 0
-11 -57 0
35 36 80 81 0
-10 -60 0
-11 -61 0
22 23 72 73 0
-10 -78 0
-11 -79 0
44 45 68 69 0
-10 -80 0
-11 -81 0
32 33 70 71 0
27 28 32 33 0
8 9 30 31 0
22 23 53 54 0
-12 -44 0
-13 -45 0
24 25 76 77 0
-12 -53 0
-13 -54 0
6 7 30 31 0
-12 -64 0
-13 -65 0
39 40 80 81 0
-12 -66 0
-13 -67 0
-12 -68 0
-13 -69 0
30 31 76 77 0
-12 -80 0
-13 -81 0
17 -37 64 65 0
-14 -54 0
32 33 72 73 0
17 37 38 -78 0
-14 -61 0
39 40 62 63 0
17 37 38 -64 0
-14 -75 0
-15 -41 0
-16 -42 0
6 7 80 81 0
22 23 46 -74 0
-16 -43 0
32 33 80 81 0
-15 -51 0
-16 -52 0
26 32 33 -39 0
-15 -72 0
-16 -73 0
26 -32 39 40 0
-17 -38 0
47 48 62 63 0
26 -39 49 50 0
-17 -65 0
35 36 70 71 0
26 -32 49 50 0
-17 -79 0
-18 -37 0
-19 -38 0
-18 -58 0
-19 -59 0
24 25 46 -74 0
-18 -60 0
-19 -61 0
12 13 80 81 0
-18 -74 0
-19 -75 0
34 -60 64 65 0
-18 -76 0
-19 -77 0
-20 -51 0
-21 -52 0
-20 -66 0
-21 -67 0
-20 -72 0
-21 -73 0
27 28 72 73 0
-20 -78 0
-21 -79 0
18 19 37 38 0
-22 -35 0
-23 -36 0
15 16 72 73 0
22 23 -24 46 0
-23 -43 0
30 31 -35 55 0
-23 -46 0
1 2 37 38 0
-22 -53 0
-23 -54 0
37 38 66 67 0
-22 -72 0
-23 -73 0
27 28 74 75 0
-24 -44 0
-25 -45 0
6 7 64 65 0
-35 49 50 55 0
-25 -46 0
47 48 56 57 0
-24 -58 0
-25 -59 0
49 50 78 79 0
-24 -68 0
-25 -69 0
27 28 62 63 0
-24 -76 0
-25 -77 0
14 -53 74 75 0
-24 -78 0
-25 -79 0
-4 8 9 29 0
-26 -33 0
4 5 29 -78 0
-26 -40 0
10 11 78 79 0
4 5 -8 29 0
-26 -50 0
-27 -32 0
-28 -33 0
41 42 60 61 0
-27 -35 0
-28 -36 0
51 52 66 67 0
-27 -62 0
-28 -63 0
1 2 41 42 0
-27 -72 0
-28 -73 0
24 25 58 59 0
4 5 76 77 0
14 -53 60 61 0
-22 24 25 46 0
-27 -74 0
-28 -75 0
8 9 -22 43 0
34 60 61 -64 0
-29 -79 0
39 40 78 79 0
-31 -55 0
41 42 64 65 0
-30 -68 0
-31 -69 0
-30 -72 0
-31 -73 0
6 7 58 59 0
-30 -76 0
-31 -77 0
1 2 49 50 0
-32 -70 0
-33 -71 0
-32 -72 0
-33 -73 0
6 7 35 36 0
-32 -80 0
-33 -81 0
-8 22 23 43 0
-34 -61 0
15 16 -22 43 0
-34 -65 0
26 32 33 -49 0
-8 15 16 43 0
-34 -75 0
-36 -55 0
3 32 33 -70 0
-35 -70 0
-36 -71 0
12 13 64 65 0
-35 -80 0
-36 -81 0
-4 29 78 79 0
-37 -66 0
-38 -67 0
20 21 66 67 0
-39 -62 0
-40 -63 0
10 11 80 81 0
-39 -70 0
-40 -71 0
-39 -78 0
-40 -79 0
1 2 47 48 0
-39 -80 0
-40 -81 0
15 16 41 42 0
-41 -58 0
-42 -59 0
18 19 74 75 0
-41 -60 0
-42 -61 0
-8 29 78 79 0
-41 -62 0
-42 -63 0
24 25 44 45 0
-41 -64 0
-42 -65 0
8 9 -15 43 0
-44 -56 0
-45 -57 0
-44 -68 0
-45 -69 0
17 -37 78 79 0
-44 -76 0
-45 -77 0
47 48 80 81 0
-44 -78 0
-45 -79 0
-30 49 50 55 0
-46 -75 0
4 5 64 65 0
-47 -56 0
-48 -57 0
10 11 60 61 0
30 31 68 69 0
-47 -62 0
-48 -63 0
18 19 60 61 0
-47 -80 0
-48 -81 0
4 5 35 36 0
-50 -55 0
15 16 51 52 0
-49 -78 0
-50 -79 0
10 11 56 57 0
-51 -66 0
-52 -67 0
8 9 76 77 0
-53 -64 0
-54 -65 0
18 19 76 77 0
-53 -72 0
-54 -73 0
